Route #1: 20 63 51
Route #2: 11 68 77 4
Route #3: 48 10 16
Route #4: 46 67 96 22
Route #5: 42 17 25 54
Route #6: 15 55 53
Route #7: 93 14 6 36
Route #8: 60 45 97 2
Route #9: 65 87 30
Route #10: 83 21 8
Route #11: 24 75 90 76
Route #12: 73 58 41 82
Route #13: 69 28 78
Route #14: 19 23 50 44
Route #15: 92 88 38 34
Route #16: 31 99 3
Route #17: 13 40 33
Route #18: 9 52 71 61
Route #19: 91 70 81 89
Route #20: 79 35 98 12
Route #21: 94 29 57
Route #22: 43 47
Route #23: 49 100 1
Route #24: 84 62 27
Route #25: 80 26 66
Route #26: 32 7 56
Route #27: 5 39 59
Route #28: 72 64 74 86
Route #29: 85 18 37 95
Cost 26132
